120
150
68
72
69
99
78
23
22
58
73
56
94
37
71
84
76
92
82
21
20
72
38
58
99
41
72
73
61
65
32
43
57
21
24
96
91
92
89
70
90
32
49
47
65
88
49
50
61
54
77
39
50
42
96
91
40
71
44
88
34
55
47
79
43
77
68
49
69
95
68
83
61
70
33
56
68
38
73
52
24
86
25
49
81
87
49
82
51
35
35
63
56
86
65
38
23
100
86
55
34
58
83
100
50
34
42
23
37
27
32
45
48
80
57
72
32
90
52
61
23
100
